job_count = 14 ;
duration = [|23, 10, 17|22, 4, 14|8, 8, 19|8, 7, 14|4, 8, 17|2, 14, 4|15, 5, 16|21, 3, 9|16, 4, 14|28, 8, 2|13, 18, 4|26, 21, 7|15, 11, 18|20, 17, 3|] ;
machine_count = 3 ;
cost = [|29, 35, 46|24, 31, 55|36, 48, 37|22, 27, 49|18, 46, 32|33, 31, 44|11, 43, 37|29, 37, 54|20, 49, 51|22, 46, 38|37, 49, 41|29, 37, 52|39, 26, 57|27, 47, 36|] ;
deadline = [44, 83, 38, 58, 40, 25, 62, 79, 49, 51, 45, 38, 40, 64] ;
release = [3, 43, 20, 21, 6, 10, 34, 41, 33, 18, 21, 19, 6, 39] ;
resource = [|2, 2, 2|2, 2, 2|7, 7, 7|5, 5, 5|6, 6, 6|4, 4, 4|4, 4, 4|4, 4, 4|3, 3, 3|3, 3, 3|5, 5, 5|1, 1, 1|7, 7, 7|3, 3, 3|] ;
capacities = [10, 10, 10] ;
